p cnf 437 1206
1 2 0
1 19 0
-2 -19 -1 0
36 -37 0
36 -54 0
37 54 -36 0
55 37 0
55 -53 0
-37 53 -55 0
-55 -36 56 0
-56 55 0
-56 36 0
57 -37 0
57 -53 0
37 53 -57 0
58 37 0
58 -52 0
-37 52 -58 0
-58 -57 59 0
-59 58 0
-59 57 0
60 -37 0
60 -52 0
37 52 -60 0
61 37 0
61 -51 0
-37 51 -61 0
-61 -60 62 0
-62 61 0
-62 60 0
63 -37 0
63 -51 0
37 51 -63 0
64 37 0
64 -50 0
-37 50 -64 0
-64 -63 65 0
-65 64 0
-65 63 0
66 -37 0
66 -50 0
37 50 -66 0
67 37 0
67 -49 0
-37 49 -67 0
-67 -66 68 0
-68 67 0
-68 66 0
69 -37 0
69 -49 0
37 49 -69 0
70 37 0
70 -48 0
-37 48 -70 0
-70 -69 71 0
-71 70 0
-71 69 0
72 -37 0
72 -48 0
37 48 -72 0
73 37 0
73 -47 0
-37 47 -73 0
-73 -72 74 0
-74 73 0
-74 72 0
75 -37 0
75 -47 0
37 47 -75 0
76 37 0
76 -46 0
-37 46 -76 0
-76 -75 77 0
-77 76 0
-77 75 0
78 -37 0
78 -46 0
37 46 -78 0
79 37 0
79 -45 0
-37 45 -79 0
-79 -78 80 0
-80 79 0
-80 78 0
81 -37 0
81 -45 0
37 45 -81 0
82 37 0
82 -44 0
-37 44 -82 0
-82 -81 83 0
-83 82 0
-83 81 0
84 -37 0
84 -44 0
37 44 -84 0
85 37 0
85 -43 0
-37 43 -85 0
-85 -84 86 0
-86 85 0
-86 84 0
87 -37 0
87 -43 0
37 43 -87 0
88 37 0
88 -42 0
-37 42 -88 0
-88 -87 89 0
-89 88 0
-89 87 0
90 -37 0
90 -42 0
37 42 -90 0
91 37 0
91 -41 0
-37 41 -91 0
-91 -90 92 0
-92 91 0
-92 90 0
93 -37 0
93 -41 0
37 41 -93 0
94 37 0
94 -40 0
-37 40 -94 0
-94 -93 95 0
-95 94 0
-95 93 0
96 -37 0
96 -40 0
37 40 -96 0
97 37 0
97 -39 0
-37 39 -97 0
-97 -96 98 0
-98 97 0
-98 96 0
99 -37 0
99 -39 0
37 39 -99 0
100 37 0
100 -38 0
-37 38 -100 0
-100 -99 101 0
-101 100 0
-101 99 0
102 -37 0
102 -118 0
37 118 -102 0
120 37 0
120 -119 0
-37 119 -120 0
-120 -102 121 0
-121 120 0
-121 102 0
122 -37 0
122 -117 0
37 117 -122 0
123 37 0
123 -118 0
-37 118 -123 0
-123 -122 124 0
-124 123 0
-124 122 0
125 -37 0
125 -116 0
37 116 -125 0
126 37 0
126 -117 0
-37 117 -126 0
-126 -125 127 0
-127 126 0
-127 125 0
128 -37 0
128 -115 0
37 115 -128 0
129 37 0
129 -116 0
-37 116 -129 0
-129 -128 130 0
-130 129 0
-130 128 0
131 -37 0
131 -114 0
37 114 -131 0
132 37 0
132 -115 0
-37 115 -132 0
-132 -131 133 0
-133 132 0
-133 131 0
134 -37 0
134 -113 0
37 113 -134 0
135 37 0
135 -114 0
-37 114 -135 0
-135 -134 136 0
-136 135 0
-136 134 0
137 -37 0
137 -112 0
37 112 -137 0
138 37 0
138 -113 0
-37 113 -138 0
-138 -137 139 0
-139 138 0
-139 137 0
140 -37 0
140 -111 0
37 111 -140 0
141 37 0
141 -112 0
-37 112 -141 0
-141 -140 142 0
-142 141 0
-142 140 0
143 -37 0
143 -110 0
37 110 -143 0
144 37 0
144 -111 0
-37 111 -144 0
-144 -143 145 0
-145 144 0
-145 143 0
146 -37 0
146 -109 0
37 109 -146 0
147 37 0
147 -110 0
-37 110 -147 0
-147 -146 148 0
-148 147 0
-148 146 0
149 -37 0
149 -108 0
37 108 -149 0
150 37 0
150 -109 0
-37 109 -150 0
-150 -149 151 0
-151 150 0
-151 149 0
152 -37 0
152 -107 0
37 107 -152 0
153 37 0
153 -108 0
-37 108 -153 0
-153 -152 154 0
-154 153 0
-154 152 0
155 -37 0
155 -106 0
37 106 -155 0
156 37 0
156 -107 0
-37 107 -156 0
-156 -155 157 0
-157 156 0
-157 155 0
158 -37 0
158 -105 0
37 105 -158 0
159 37 0
159 -106 0
-37 106 -159 0
-159 -158 160 0
-160 159 0
-160 158 0
161 -37 0
161 -104 0
37 104 -161 0
162 37 0
162 -105 0
-37 105 -162 0
-162 -161 163 0
-163 162 0
-163 161 0
164 -37 0
164 -103 0
37 103 -164 0
165 37 0
165 -104 0
-37 104 -165 0
-165 -164 166 0
-166 165 0
-166 164 0
167 -37 0
167 -168 0
167 -185 0
37 168 185 -167 0
-184 -118 186 0
-186 184 0
-186 118 0
-184 -187 188 0
-188 184 0
-188 187 0
-187 -118 189 0
-189 187 0
-189 118 0
190 -189 0
190 -188 0
190 -186 0
189 188 186 -190 0
191 185 119 0
191 -185 -119 0
-191 185 -119 0
-191 -185 119 0
192 191 190 0
192 -191 -190 0
-192 191 -190 0
-192 -191 190 0
193 -37 0
193 38 0
193 -185 0
193 -119 0
193 -192 0
37 -38 185 119 192 -193 0
194 37 0
194 -185 0
-37 185 -194 0
-194 -193 -167 195 0
-195 194 0
-195 193 0
-195 167 0
196 -37 0
196 -168 0
196 -184 0
37 168 184 -196 0
-183 -117 197 0
-197 183 0
-197 117 0
-183 -198 199 0
-199 183 0
-199 198 0
-198 -117 200 0
-200 198 0
-200 117 0
187 -200 0
187 -199 0
187 -197 0
200 199 197 -187 0
201 184 118 0
201 -184 -118 0
-201 184 -118 0
-201 -184 118 0
202 201 187 0
202 -201 -187 0
-202 201 -187 0
-202 -201 187 0
203 -37 0
203 38 0
203 -185 0
203 -119 0
203 -202 0
37 -38 185 119 202 -203 0
204 37 0
204 -184 0
-37 184 -204 0
-204 -203 -196 205 0
-205 204 0
-205 203 0
-205 196 0
206 -37 0
206 -168 0
206 -183 0
37 168 183 -206 0
-182 -116 207 0
-207 182 0
-207 116 0
-182 -208 209 0
-209 182 0
-209 208 0
-208 -116 210 0
-210 208 0
-210 116 0
198 -210 0
198 -209 0
198 -207 0
210 209 207 -198 0
211 183 117 0
211 -183 -117 0
-211 183 -117 0
-211 -183 117 0
212 211 198 0
212 -211 -198 0
-212 211 -198 0
-212 -211 198 0
213 -37 0
213 38 0
213 -185 0
213 -119 0
213 -212 0
37 -38 185 119 212 -213 0
214 37 0
214 -183 0
-37 183 -214 0
-214 -213 -206 215 0
-215 214 0
-215 213 0
-215 206 0
216 -37 0
216 -168 0
216 -182 0
37 168 182 -216 0
-181 -115 217 0
-217 181 0
-217 115 0
-181 -218 219 0
-219 181 0
-219 218 0
-218 -115 220 0
-220 218 0
-220 115 0
208 -220 0
208 -219 0
208 -217 0
220 219 217 -208 0
221 182 116 0
221 -182 -116 0
-221 182 -116 0
-221 -182 116 0
222 221 208 0
222 -221 -208 0
-222 221 -208 0
-222 -221 208 0
223 -37 0
223 38 0
223 -185 0
223 -119 0
223 -222 0
37 -38 185 119 222 -223 0
224 37 0
224 -182 0
-37 182 -224 0
-224 -223 -216 225 0
-225 224 0
-225 223 0
-225 216 0
226 -37 0
226 -168 0
226 -181 0
37 168 181 -226 0
-180 -114 227 0
-227 180 0
-227 114 0
-180 -228 229 0
-229 180 0
-229 228 0
-228 -114 230 0
-230 228 0
-230 114 0
218 -230 0
218 -229 0
218 -227 0
230 229 227 -218 0
231 181 115 0
231 -181 -115 0
-231 181 -115 0
-231 -181 115 0
232 231 218 0
232 -231 -218 0
-232 231 -218 0
-232 -231 218 0
233 -37 0
233 38 0
233 -185 0
233 -119 0
233 -232 0
37 -38 185 119 232 -233 0
234 37 0
234 -181 0
-37 181 -234 0
-234 -233 -226 235 0
-235 234 0
-235 233 0
-235 226 0
236 -37 0
236 -168 0
236 -180 0
37 168 180 -236 0
-179 -113 237 0
-237 179 0
-237 113 0
-179 -238 239 0
-239 179 0
-239 238 0
-238 -113 240 0
-240 238 0
-240 113 0
228 -240 0
228 -239 0
228 -237 0
240 239 237 -228 0
241 180 114 0
241 -180 -114 0
-241 180 -114 0
-241 -180 114 0
242 241 228 0
242 -241 -228 0
-242 241 -228 0
-242 -241 228 0
243 -37 0
243 38 0
243 -185 0
243 -119 0
243 -242 0
37 -38 185 119 242 -243 0
244 37 0
244 -180 0
-37 180 -244 0
-244 -243 -236 245 0
-245 244 0
-245 243 0
-245 236 0
246 -37 0
246 -168 0
246 -179 0
37 168 179 -246 0
-178 -112 247 0
-247 178 0
-247 112 0
-178 -248 249 0
-249 178 0
-249 248 0
-248 -112 250 0
-250 248 0
-250 112 0
238 -250 0
238 -249 0
238 -247 0
250 249 247 -238 0
251 179 113 0
251 -179 -113 0
-251 179 -113 0
-251 -179 113 0
252 251 238 0
252 -251 -238 0
-252 251 -238 0
-252 -251 238 0
253 -37 0
253 38 0
253 -185 0
253 -119 0
253 -252 0
37 -38 185 119 252 -253 0
254 37 0
254 -179 0
-37 179 -254 0
-254 -253 -246 255 0
-255 254 0
-255 253 0
-255 246 0
256 -37 0
256 -168 0
256 -178 0
37 168 178 -256 0
-177 -111 257 0
-257 177 0
-257 111 0
-177 -258 259 0
-259 177 0
-259 258 0
-258 -111 260 0
-260 258 0
-260 111 0
248 -260 0
248 -259 0
248 -257 0
260 259 257 -248 0
261 178 112 0
261 -178 -112 0
-261 178 -112 0
-261 -178 112 0
262 261 248 0
262 -261 -248 0
-262 261 -248 0
-262 -261 248 0
263 -37 0
263 38 0
263 -185 0
263 -119 0
263 -262 0
37 -38 185 119 262 -263 0
264 37 0
264 -178 0
-37 178 -264 0
-264 -263 -256 265 0
-265 264 0
-265 263 0
-265 256 0
266 -37 0
266 -168 0
266 -177 0
37 168 177 -266 0
-176 -110 267 0
-267 176 0
-267 110 0
-176 -268 269 0
-269 176 0
-269 268 0
-268 -110 270 0
-270 268 0
-270 110 0
258 -270 0
258 -269 0
258 -267 0
270 269 267 -258 0
271 177 111 0
271 -177 -111 0
-271 177 -111 0
-271 -177 111 0
272 271 258 0
272 -271 -258 0
-272 271 -258 0
-272 -271 258 0
273 -37 0
273 38 0
273 -185 0
273 -119 0
273 -272 0
37 -38 185 119 272 -273 0
274 37 0
274 -177 0
-37 177 -274 0
-274 -273 -266 275 0
-275 274 0
-275 273 0
-275 266 0
276 -37 0
276 -168 0
276 -176 0
37 168 176 -276 0
-175 -109 277 0
-277 175 0
-277 109 0
-175 -278 279 0
-279 175 0
-279 278 0
-278 -109 280 0
-280 278 0
-280 109 0
268 -280 0
268 -279 0
268 -277 0
280 279 277 -268 0
281 176 110 0
281 -176 -110 0
-281 176 -110 0
-281 -176 110 0
282 281 268 0
282 -281 -268 0
-282 281 -268 0
-282 -281 268 0
283 -37 0
283 38 0
283 -185 0
283 -119 0
283 -282 0
37 -38 185 119 282 -283 0
284 37 0
284 -176 0
-37 176 -284 0
-284 -283 -276 285 0
-285 284 0
-285 283 0
-285 276 0
286 -37 0
286 -168 0
286 -175 0
37 168 175 -286 0
-174 -108 287 0
-287 174 0
-287 108 0
-174 -288 289 0
-289 174 0
-289 288 0
-288 -108 290 0
-290 288 0
-290 108 0
278 -290 0
278 -289 0
278 -287 0
290 289 287 -278 0
291 175 109 0
291 -175 -109 0
-291 175 -109 0
-291 -175 109 0
292 291 278 0
292 -291 -278 0
-292 291 -278 0
-292 -291 278 0
293 -37 0
293 38 0
293 -185 0
293 -119 0
293 -292 0
37 -38 185 119 292 -293 0
294 37 0
294 -175 0
-37 175 -294 0
-294 -293 -286 295 0
-295 294 0
-295 293 0
-295 286 0
296 -37 0
296 -168 0
296 -174 0
37 168 174 -296 0
-173 -107 297 0
-297 173 0
-297 107 0
-173 -298 299 0
-299 173 0
-299 298 0
-298 -107 300 0
-300 298 0
-300 107 0
288 -300 0
288 -299 0
288 -297 0
300 299 297 -288 0
301 174 108 0
301 -174 -108 0
-301 174 -108 0
-301 -174 108 0
302 301 288 0
302 -301 -288 0
-302 301 -288 0
-302 -301 288 0
303 -37 0
303 38 0
303 -185 0
303 -119 0
303 -302 0
37 -38 185 119 302 -303 0
304 37 0
304 -174 0
-37 174 -304 0
-304 -303 -296 305 0
-305 304 0
-305 303 0
-305 296 0
306 -37 0
306 -168 0
306 -173 0
37 168 173 -306 0
-172 -106 307 0
-307 172 0
-307 106 0
-172 -308 309 0
-309 172 0
-309 308 0
-308 -106 310 0
-310 308 0
-310 106 0
298 -310 0
298 -309 0
298 -307 0
310 309 307 -298 0
311 173 107 0
311 -173 -107 0
-311 173 -107 0
-311 -173 107 0
312 311 298 0
312 -311 -298 0
-312 311 -298 0
-312 -311 298 0
313 -37 0
313 38 0
313 -185 0
313 -119 0
313 -312 0
37 -38 185 119 312 -313 0
314 37 0
314 -173 0
-37 173 -314 0
-314 -313 -306 315 0
-315 314 0
-315 313 0
-315 306 0
316 -37 0
316 -168 0
316 -172 0
37 168 172 -316 0
-171 -105 317 0
-317 171 0
-317 105 0
-171 -318 319 0
-319 171 0
-319 318 0
-318 -105 320 0
-320 318 0
-320 105 0
308 -320 0
308 -319 0
308 -317 0
320 319 317 -308 0
321 172 106 0
321 -172 -106 0
-321 172 -106 0
-321 -172 106 0
322 321 308 0
322 -321 -308 0
-322 321 -308 0
-322 -321 308 0
323 -37 0
323 38 0
323 -185 0
323 -119 0
323 -322 0
37 -38 185 119 322 -323 0
324 37 0
324 -172 0
-37 172 -324 0
-324 -323 -316 325 0
-325 324 0
-325 323 0
-325 316 0
326 -37 0
326 -168 0
326 -171 0
37 168 171 -326 0
-170 -104 327 0
-327 170 0
-327 104 0
-170 -169 -103 328 0
-328 170 0
-328 169 0
-328 103 0
-169 -103 -104 329 0
-329 169 0
-329 103 0
-329 104 0
318 -329 0
318 -328 0
318 -327 0
329 328 327 -318 0
330 171 105 0
330 -171 -105 0
-330 171 -105 0
-330 -171 105 0
331 330 318 0
331 -330 -318 0
-331 330 -318 0
-331 -330 318 0
332 -37 0
332 38 0
332 -185 0
332 -119 0
332 -331 0
37 -38 185 119 331 -332 0
333 37 0
333 -171 0
-37 171 -333 0
-333 -332 -326 334 0
-334 333 0
-334 332 0
-334 326 0
335 -37 0
335 -168 0
335 -170 0
37 168 170 -335 0
-169 -103 336 0
-336 169 0
-336 103 0
337 170 104 0
337 -170 -104 0
-337 170 -104 0
-337 -170 104 0
338 337 336 0
338 -337 -336 0
-338 337 -336 0
-338 -337 336 0
339 -37 0
339 38 0
339 -185 0
339 -119 0
339 -338 0
37 -38 185 119 338 -339 0
340 37 0
340 -170 0
-37 170 -340 0
-340 -339 -335 341 0
-341 340 0
-341 339 0
-341 335 0
-38 185 119 168 0
-168 38 0
-168 -185 0
-168 -119 0
342 -37 0
342 -168 0
342 -169 0
37 168 169 -342 0
343 169 -103 0
343 -169 103 0
-343 169 103 0
-343 -169 -103 0
344 -37 0
344 38 0
344 -185 0
344 -119 0
344 -343 0
37 -38 185 119 343 -344 0
345 37 0
345 -169 0
-37 169 -345 0
-345 -344 -342 346 0
-346 345 0
-346 344 0
-346 342 0
347 -185 0
347 -119 0
347 -348 0
185 119 348 -347 0
54 53 52 51 50 49 48 47 46 45 44 43 42 41 40 39 38 349 0
-349 -54 0
-349 -53 0
-349 -52 0
-349 -51 0
-349 -50 0
-349 -49 0
-349 -48 0
-349 -47 0
-349 -46 0
-349 -45 0
-349 -44 0
-349 -43 0
-349 -42 0
-349 -41 0
-349 -40 0
-349 -39 0
-349 -38 0
350 -185 0
350 -119 0
350 -349 0
350 -37 0
185 119 349 37 -350 0
-37 0
-348 0
-169 0
-170 0
-171 0
-172 0
-173 0
-174 0
-175 0
-176 0
-177 0
-178 0
-179 0
-180 0
-181 0
-182 0
-183 0
-184 0
-185 0
-103 351 0
103 -351 0
-104 352 0
104 -352 0
-105 353 0
105 -353 0
-106 354 0
106 -354 0
-107 355 0
107 -355 0
-108 356 0
108 -356 0
-109 357 0
109 -357 0
-110 358 0
110 -358 0
-111 359 0
111 -359 0
-112 360 0
112 -360 0
-113 361 0
113 -361 0
-114 362 0
114 -362 0
-115 363 0
115 -363 0
-116 364 0
116 -364 0
-117 365 0
117 -365 0
-118 366 0
118 -366 0
-119 367 0
119 -367 0
-38 368 0
38 -368 0
-39 369 0
39 -369 0
-40 370 0
40 -370 0
-41 371 0
41 -371 0
-42 372 0
42 -372 0
-43 373 0
43 -373 0
-44 374 0
44 -374 0
-45 375 0
45 -375 0
-46 376 0
46 -376 0
-47 377 0
47 -377 0
-48 378 0
48 -378 0
-49 379 0
49 -379 0
-50 380 0
50 -380 0
-51 381 0
51 -381 0
-52 382 0
52 -382 0
-53 383 0
53 -383 0
-54 384 0
54 -384 0
-2 351 0
2 -351 0
-3 352 0
3 -352 0
-4 353 0
4 -353 0
-5 354 0
5 -354 0
-6 355 0
6 -355 0
-7 356 0
7 -356 0
-8 357 0
8 -357 0
-9 358 0
9 -358 0
-10 359 0
10 -359 0
-11 360 0
11 -360 0
-12 361 0
12 -361 0
-13 362 0
13 -362 0
-14 363 0
14 -363 0
-15 364 0
15 -364 0
-16 365 0
16 -365 0
-17 366 0
17 -366 0
-18 367 0
18 -367 0
-19 368 0
19 -368 0
-20 369 0
20 -369 0
-21 370 0
21 -370 0
-22 371 0
22 -371 0
-23 372 0
23 -372 0
-24 373 0
24 -373 0
-25 374 0
25 -374 0
-26 375 0
26 -375 0
-27 376 0
27 -376 0
-28 377 0
28 -377 0
-29 378 0
29 -378 0
-30 379 0
30 -379 0
-31 380 0
31 -380 0
-32 381 0
32 -381 0
-33 382 0
33 -382 0
-34 383 0
34 -383 0
-35 384 0
35 -384 0
-385 350 0
385 -350 0
-386 347 0
386 -347 0
-387 346 0
387 -346 0
-388 341 0
388 -341 0
-389 334 0
389 -334 0
-390 325 0
390 -325 0
-391 315 0
391 -315 0
-392 305 0
392 -305 0
-393 295 0
393 -295 0
-394 285 0
394 -285 0
-395 275 0
395 -275 0
-396 265 0
396 -265 0
-397 255 0
397 -255 0
-398 245 0
398 -245 0
-399 235 0
399 -235 0
-400 225 0
400 -225 0
-401 215 0
401 -215 0
-402 205 0
402 -205 0
-403 195 0
403 -195 0
-404 0
-405 166 0
405 -166 0
-406 163 0
406 -163 0
-407 160 0
407 -160 0
-408 157 0
408 -157 0
-409 154 0
409 -154 0
-410 151 0
410 -151 0
-411 148 0
411 -148 0
-412 145 0
412 -145 0
-413 142 0
413 -142 0
-414 139 0
414 -139 0
-415 136 0
415 -136 0
-416 133 0
416 -133 0
-417 130 0
417 -130 0
-418 127 0
418 -127 0
-419 124 0
419 -124 0
-420 121 0
420 -121 0
-421 101 0
421 -101 0
-422 98 0
422 -98 0
-423 95 0
423 -95 0
-424 92 0
424 -92 0
-425 89 0
425 -89 0
-426 86 0
426 -86 0
-427 83 0
427 -83 0
-428 80 0
428 -80 0
-429 77 0
429 -77 0
-430 74 0
430 -74 0
-431 71 0
431 -71 0
-432 68 0
432 -68 0
-433 65 0
433 -65 0
-434 62 0
434 -62 0
-435 59 0
435 -59 0
-436 56 0
436 -56 0
-437 0
385 0
-386 0
-387 1 0
387 -1 0
